certificates/rado_a15_c207_N37.cnf
c Rad2 upper bound instance: x1 + 15*x2 - x3 = 207, interval [1,37]
p cnf 37 184
1 4 14 0
-1 -4 -14 0
1 15 19 0
-1 -15 -19 0
1 16 34 0
-1 -16 -34 0
2 5 14 0
-2 -5 -14 0
2 15 20 0
-2 -15 -20 0
2 16 35 0
-2 -16 -35 0
3 6 14 0
-3 -6 -14 0
3 15 21 0
-3 -15 -21 0
3 16 36 0
-3 -16 -36 0
4 7 14 0
-4 -7 -14 0
4 15 22 0
-4 -15 -22 0
4 16 37 0
-4 -16 -37 0
5 8 14 0
-5 -8 -14 0
5 15 23 0
-5 -15 -23 0
6 9 14 0
-6 -9 -14 0
6 15 24 0
-6 -15 -24 0
7 10 14 0
-7 -10 -14 0
7 15 25 0
-7 -15 -25 0
8 11 14 0
-8 -11 -14 0
8 15 26 0
-8 -15 -26 0
9 12 14 0
-9 -12 -14 0
9 15 27 0
-9 -15 -27 0
10 13 14 0
-10 -13 -14 0
10 15 28 0
-10 -15 -28 0
11 14 0
-11 -14 0
11 15 29 0
-11 -15 -29 0
12 14 15 0
-12 -14 -15 0
12 15 30 0
-12 -15 -30 0
1 13 0
-1 -13 0
13 14 16 0
-13 -14 -16 0
13 15 31 0
-13 -15 -31 0
2 13 14 0
-2 -13 -14 0
14 17 0
-14 -17 0
14 15 32 0
-14 -15 -32 0
3 13 15 0
-3 -13 -15 0
14 15 18 0
-14 -15 -18 0
15 33 0
-15 -33 0
4 13 16 0
-4 -13 -16 0
14 16 19 0
-14 -16 -19 0
15 16 34 0
-15 -16 -34 0
5 13 17 0
-5 -13 -17 0
14 17 20 0
-14 -17 -20 0
15 17 35 0
-15 -17 -35 0
6 13 18 0
-6 -13 -18 0
14 18 21 0
-14 -18 -21 0
15 18 36 0
-15 -18 -36 0
7 13 19 0
-7 -13 -19 0
14 19 22 0
-14 -19 -22 0
15 19 37 0
-15 -19 -37 0
8 13 20 0
-8 -13 -20 0
14 20 23 0
-14 -20 -23 0
9 13 21 0
-9 -13 -21 0
14 21 24 0
-14 -21 -24 0
10 13 22 0
-10 -13 -22 0
14 22 25 0
-14 -22 -25 0
11 13 23 0
-11 -13 -23 0
14 23 26 0
-14 -23 -26 0
12 13 24 0
-12 -13 -24 0
14 24 27 0
-14 -24 -27 0
13 25 0
-13 -25 0
14 25 28 0
-14 -25 -28 0
13 14 26 0
-13 -14 -26 0
14 26 29 0
-14 -26 -29 0
13 15 27 0
-13 -15 -27 0
14 27 30 0
-14 -27 -30 0
1 12 28 0
-1 -12 -28 0
13 16 28 0
-13 -16 -28 0
14 28 31 0
-14 -28 -31 0
2 12 29 0
-2 -12 -29 0
13 17 29 0
-13 -17 -29 0
14 29 32 0
-14 -29 -32 0
3 12 30 0
-3 -12 -30 0
13 18 30 0
-13 -18 -30 0
14 30 33 0
-14 -30 -33 0
4 12 31 0
-4 -12 -31 0
13 19 31 0
-13 -19 -31 0
14 31 34 0
-14 -31 -34 0
5 12 32 0
-5 -12 -32 0
13 20 32 0
-13 -20 -32 0
14 32 35 0
-14 -32 -35 0
6 12 33 0
-6 -12 -33 0
13 21 33 0
-13 -21 -33 0
14 33 36 0
-14 -33 -36 0
7 12 34 0
-7 -12 -34 0
13 22 34 0
-13 -22 -34 0
14 34 37 0
-14 -34 -37 0
8 12 35 0
-8 -12 -35 0
13 23 35 0
-13 -23 -35 0
9 12 36 0
-9 -12 -36 0
13 24 36 0
-13 -24 -36 0
10 12 37 0
-10 -12 -37 0
13 25 37 0
-13 -25 -37 0
