certificates/rado_a15_c207_N37.drat
14 -35 0
-35 -36 -37 0
32 35 0
d 32 14 35 0
-15 35 0
-36 -37 0
d -35 -36 -37 0
35 -37 0
15 -37 0
-37 0
-15 0
33 0
19 0
-14 0
11 0
17 0
34 0
-35 0
18 0
12 0
32 0
-7 0
-5 0
-6 0
4 0
10 0
25 0
2 0
8 0
23 0
3 0
9 0
24 0
-31 0
-13 0
-29 0
-30 0
-36 0
0
